&CONTROL
    calculation = 'relax'
    restart_mode = 'from_scratch'
    prefix = 'system2'
    pseudo_dir = '../../pseudopotentials/'
    outdir = './tmp_system2/'
    tprnfor = .true.
    tstress = .true.
/
&SYSTEM
    ibrav = 0
    nat = 76
    ntyp = 8
    ecutwfc = 40.0
    ecutrho = 320.0
    occupations = 'smearing'
    smearing = 'gaussian'
    degauss = 0.02
/
&ELECTRONS
    conv_thr = 1.0e-6
    mixing_beta = 0.3
    electron_maxstep = 100
/
&IONS
    ion_dynamics = 'bfgs'
/
ATOMIC_SPECIES
C     12.010 C.pbe-n-kjpaw_psl.1.0.0.UPF
Fe    55.845 Fe.pbe-spn-kjpaw_psl.0.2.1.UPF
Li     6.941 Li_pbe_v1.5.uspp.F.UPF
Mo    95.960 Mo_ONCV_PBE-1.0.oncvpsp.UPF
Na    22.990 na_pbe_v1.5.uspp.F.UPF
O     16.000 O.pbe-n-kjpaw_psl.0.1.UPF
P     30.970 P.pbe-n-rrkjus_psl.1.0.0.UPF
S     32.070 s_pbe_v1.4.uspp.F.UPF

ATOMIC_POSITIONS (angstrom)
Na      6.601993    12.730535    13.607359
Na      6.618668    12.724100     8.431426
Na      8.285308    11.134588    10.979008
Na      5.000000    11.130283    16.185987
Na      8.289527    11.125295    16.170566
Na      8.345645     6.821495    13.662914
Na      8.341426     6.830787     8.471355
Na     11.630953     6.825800     8.455934
Na     10.028960     5.225548    11.034563
Na     10.012285     5.231983    16.210495
Li      5.020280    11.060348    10.973792
Li     11.610679     6.895734    13.668130
Fe      9.953884    10.275828    13.759301
Fe      9.966039    10.280555     8.594336
Fe      6.677069     7.680255    10.882620
Fe      6.664914     7.675528    16.047585
P       6.613198     9.744220    13.334211
P       6.656391     9.754923     8.174573
P      10.017755     8.211863    11.307711
P       9.974562     8.201160    16.467348
C       9.973861    12.956083    13.446487
C       9.931783    12.929392     8.267058
C       6.657092     5.000000    11.195435
C       6.699170     5.026690    16.374863
O       6.528185    12.687497    11.136804
O       6.638349    12.722222    16.325844
O       9.933667    12.384170    14.614972
O       9.945084    12.365306     9.442601
O       9.968029    12.210681    12.378628
O       9.946598    12.183883     7.202870
O       5.403361    10.614078    13.793764
O       7.883007    10.555269    13.755993
O       5.422813    10.608560     8.619707
O       7.903780    10.605945     8.577623
O       6.582419     9.622324    11.777563
O      10.051629     9.622423    10.666210
O       6.640498     9.580545    17.008917
O       9.959911     9.582522    15.787943
O       6.579324     8.333659    13.975711
O      10.048534     8.333758    12.864358
O       6.671042     8.373560     8.853978
O       9.990455     8.375537     7.633004
O       8.747946     7.400814    10.885929
O      11.227592     7.342005    10.848157
O       8.727173     7.350138    16.064298
O      11.208140     7.347522    16.022214
O       6.662924     5.745401    12.263293
O       6.684355     5.772200    17.439052
O       6.697286     5.571913    10.026950
O       6.685869     5.590776    15.199320
O      10.102768     5.268585    13.505118
O       9.992604     5.233861     8.316078
Mo      5.123239     7.135002    28.192362
Mo      6.719358     9.899561    28.192362
Mo      8.315477     7.135002    28.192362
Mo      9.911596     9.899561    28.192362
Mo      6.719358     8.056522    21.503215
Mo      8.315477    10.821081    21.503215
Mo      9.911596     8.056522    21.503215
Mo     11.507715    10.821081    21.503215
C       5.123239     7.135002    19.939052
C       6.719358     9.899561    19.939052
S       8.315477     7.135002    19.939052
S       9.911596     9.899561    19.939052
S       6.719358     8.056522    29.756472
S       8.315477    10.821081    29.756472
S       9.911596     8.056522    29.756472
S      11.507715    10.821081    29.756472
S       5.123239     7.135002    23.067379
S       6.719358     9.899561    23.067379
S       8.315477     7.135002    23.067379
S       9.911596     9.899561    23.067379
S       6.719358     8.056522    26.628252
S       8.315477    10.821081    26.628252
S       9.911596     8.056522    26.628252
S      11.507715    10.821081    26.628252

CELL_PARAMETERS (angstrom)
   16.630953     0.000000     0.000000
    0.000000    17.956083     0.000000
    0.000000     0.000000    32.553602

K_POINTS (automatic)
1 1 1 0 0 0
