&CONTROL
    calculation = 'relax'
    restart_mode = 'from_scratch'
    prefix = 'system1'
    pseudo_dir = '../pseudopotentials/'
    outdir = './tmp_system1/'
    tprnfor = .true.
    tstress = .true.
/
&SYSTEM
    ibrav = 0
    nat = 52
    ntyp = 6
    ecutwfc = 40.0
    ecutrho = 320.0
    occupations = 'smearing'
    smearing = 'gaussian'
    degauss = 0.02
/
&ELECTRONS
    conv_thr = 1.0e-6
    mixing_beta = 0.3
    electron_maxstep = 100
/
&IONS
    ion_dynamics = 'bfgs'
/
ATOMIC_SPECIES
C     12.010 C.pbe-n-kjpaw_psl.1.0.0.UPF
Fe    55.845 Fe.pbe-spn-kjpaw_psl.0.2.1.UPF
Li     6.941 Li_pbe_v1.5.uspp.F.UPF
Na    22.990 na_pbe_v1.5.uspp.F.UPF
O     16.000 O.pbe-n-kjpaw_psl.0.1.UPF
P     30.970 P.pbe-n-rrkjus_psl.1.0.0.UPF

ATOMIC_POSITIONS (angstrom)
Na      1.543404     8.245841     6.390845
Na      1.560080     8.239406     1.214913
Na      3.226720     6.649894     3.762494
Na     -0.058589     6.645589     8.969473
Na      3.230938     6.640601     8.954053
Na      3.287056     2.336801     6.446400
Na      3.282838     2.346094     1.254841
Na      6.572365     2.341106     1.239421
Na      4.970372     0.740854     3.818049
Na      4.953697     0.747289     8.993982
Li     -0.038308     6.575655     3.757278
Li      6.552091     2.411040     6.451616
Fe      4.895296     5.791134     6.542788
Fe      4.907451     5.795861     1.377823
Fe      1.618480     3.195561     3.666107
Fe      1.606326     3.190834     8.831072
P       1.554609     5.259526     6.117697
P       1.597803     5.270229     0.958060
P       4.959167     3.727169     4.091197
P       4.915973     3.716466     9.250834
C       4.915272     8.471389     6.229973
C       4.873194     8.444698     1.050545
C       1.598504     0.515306     3.978921
C       1.640582     0.541997     9.158349
O       1.469597     8.202803     3.920290
O       1.579760     8.237528     9.109330
O       4.875078     7.899476     7.398458
O       4.886496     7.880612     2.226088
O       4.909441     7.725987     5.162115
O       4.888010     7.699189    -0.013644
O       0.344772     6.129384     6.577251
O       2.824418     6.070575     6.539479
O       0.364225     6.123866     1.403193
O       2.845191     6.121251     1.361110
O       1.523830     5.137631     4.561050
O       4.993041     5.137729     3.449697
O       1.581909     5.095851     9.792404
O       4.901323     5.097829     8.571430
O       1.520735     3.848965     6.759198
O       4.989946     3.849064     5.647844
O       1.612453     3.888866     1.637465
O       4.931867     3.890843     0.416491
O       3.689358     2.916120     3.669415
O       6.169004     2.857311     3.631644
O       3.668585     2.865444     8.847785
O       6.149551     2.862828     8.805701
O       1.604335     1.260707     5.046780
O       1.625766     1.287506    10.222538
O       1.638698     1.087219     2.810436
O       1.627281     1.106082     7.982806
O       5.044179     0.783891     6.288604
O       4.934016     0.749167     1.099564

CELL_PARAMETERS (angstrom)
    6.602513     0.000000    -0.022389
   -0.088737     8.986695    -0.152274
    0.000000     0.000000    10.383557

K_POINTS (automatic)
1 1 1 0 0 0
