&CONTROL
    calculation = 'scf'
    restart_mode = 'from_scratch'
    prefix = 'system1'
    pseudo_dir = '../
&SYSTEM
    ibrav = 0
    nat = 52
    ntyp = 6
    ecutwfc = 40.0
    ecutrho = 320.0
    occupations = 'smearing'
    smearing = 'gaussian'
    degauss = 0.02
/
&ELECTRONS
    conv_thr = 1.0e-6
    mixing_beta = 0.3
    electron_maxstep = 100
/
ATOMIC_SPECIES
C     12.010 C.pbe-n-kjpaw_psl.1.0.0.UPF
Fe    55.845 Fe.pbe-spn-kjpaw_psl.0.2.1.UPF
Li     6.941 Li_pbe_v1.5.uspp.F.UPF
Na    22.990 na_pbe_v1.5.uspp.F.UPF
O     16.000 O.pbe-n-kjpaw_psl.0.1.UPF
P     30.970 P.pbe-n-rrkjus_psl.1.0.0.UPF
ATOMIC_POSITIONS (angstrom)
Na            1.4574811060        8.2909717580        6.3645088068
Na            1.6018023169        8.1896447753        1.3752222781
Na            3.2159002924        6.5328604388        3.8496641600
Na           -0.0695031094        6.4890209021        8.9885967272
Na            3.1332615245        6.5431969926        9.0455957141
Na            3.2978757076        2.4538345612        6.3592298400
Na            3.3805144755        2.4434980074        1.1632982859
Na            6.5832791094        2.4976740979        1.2202972728
Na            5.0562948940        0.6957232420        3.8443851932
Na            4.9119746831        0.7970502247        8.8336727219
Li            0.0178449581        5.9062042625        3.5554412215
Li            6.4959380419        3.0804907375        6.6534527785
Fe            4.9486130271        5.9382247337        6.5327966581
Fe            4.9447565713        5.9398667837        1.3575915929
Fe            1.5651629729        3.0484702663        3.6760983419
Fe            1.5690204287        3.0468282163        8.8513034071
P             1.5679847792        5.2504467375        6.1535174262
P             1.6217157166        5.2070620547        1.0332697091
P             4.9457912208        3.7362482625        4.0553765738
P             4.8920602834        3.7796329453        9.1756242909
C             4.8418914117        8.3579701375        6.2011088978
C             4.8988997328        8.3627038087        0.9675073852
C             1.6718845883        0.6287248625        4.0077851022
C             1.6148762672        0.6239911913        9.2413866148
O             1.7117192079        8.3495775505        3.9656372183
O             1.5741411229        8.3465656142        9.2794730788
O             4.7895247501        7.7616490178        7.3706323255
O             4.8341094378        7.8227203360        2.1542667232
O             5.0378275377        7.5604286118        5.1897695270
O             5.0173275718        7.5037303835       -0.0092482559
O             0.4378768527        6.1502628820        6.7713993878
O             2.8897578197        6.0648855354        6.1774661714
O             0.4401512010        6.0492119371        1.6635149682
O             2.8818716929        6.1352609780        1.0697167190
O             1.2873809063        4.9225341288        4.6410038719
O             4.8767637430        5.0760641233        3.2571624312
O             1.3732368406        4.8688693943        9.9108074240
O             4.7182481776        5.0833500074        8.3601149585
O             1.6370122570        3.9106298767        6.9517325688
O             5.2263950937        4.0641608712        5.5678901281
O             1.7955278224        3.9033449926        1.8487800415
O             5.1405391594        4.1178246057        0.2980875760
O             3.6240181803        2.9218094646        4.0314278286
O             6.0758991473        2.8364321180        3.4374956122
O             3.6319043071        2.8514340220        9.1391782810
O             6.0736247990        2.9374820629        8.5453790318
O             1.4759484623        1.4262653882        5.0191254730
O             1.4964484282        1.4829646165       10.2181422559
O             1.7242512499        1.2250459822        2.8382616745
O             1.6796675622        1.1639736640        8.0546272768
O             4.8020567921        0.6371164495        6.2432567817
O             4.9396348771        0.6401293858        0.9294209212
End final coordinates
K_POINTS (automatic)
1 1 1 0 0 0
